% Escenario 2:
% - 3 plantas: nuclear, hidroeléctrica, térmica
% - 2 clientes
% - 3 días
% Se cubre 50% de la demanda mínima; capacidades estándar.

np = 3;
nc = 2;
nd = 3;

nombrePlanta = ["Nuclear", "Hidroelectrica", "Termica"];
nombreCliente = ["ClienteA", "ClienteB"];

% Costos de producción
costo = [40.0, 25.0, 50.0];

% Capacidades por planta
cap = [1000, 300, 500];

% Pagos por MW de cada cliente
pago = [100.0, 120.0];

% Demanda
dem = array2d(1..nc, 1..nd, [
   80, 110, 90,    % ClienteA, días 1..3
   150, 98, 340    % ClienteB, días 1..3
]);

% Porcentaje mínimo
G = 0.50;

% Umbral para régimen alto
umbralAlto = [0.8, 0.8, 0.8];

% Días consecutivos en alto
maxDiasAlto = [1, 1, 1];
